9 13 16 3 20 1 24 17 15 10 28 23 19 22 29 6 21 27 11 18 8 25 2 12 4 5 26 7 14
20 11 22 23 14 6 25 1 24 27 26 17 15 2 10 19 12 28 16 18 9 3 21 13 29 7 4 8 5
12 19 15 14 4 24 3 26 1 27 13 22 29 2 25 20 6 16 23 18 11 17 21 5 9 10 28 8 7
4 14 24 27 3 19 11 29 5 23 17 25 9 26 16 8 7 20 13 18 28 6 10 2 15 12 21 22 1
16 6 5 15 22 9 29 7 8 3 10 14 24 2 28 13 18 11 26 19 17 27 12 21 20 25 4 1 23
